NAME: tsp35_7
COMMENT: 35-tsp problem (Padberg/Rinaldi)
TYPE: TSP
DIMENSION: 35
EDGE_WEIGHT_TYPE : EUC_2D
NODE_COORD_SECTION
1 11 37
2 26 19
3 9 26
4 10 11
5 11 37
6 38 27
7 29 25
8 8 14
9 33 37
10 17 28
11 18 25
12 25 24
13 40 11
14 35 5
15 9 9
16 26 17
17 18 5
18 3 4
19 24 31
20 12 0
21 28 29
22 7 30
23 18 32
24 32 30
25 22 16
26 35 22
27 7 4
28 18 15
29 32 23
30 39 27
31 16 7
32 1 9
33 1 30
34 13 10
35 9 6
